
%FILE DATA:	Soccer Computational Problem for MiniZinc Models	%
%AUTHOR:	Jack Wall	%
%CONTACT:  	116397063@umail.ucc.ie			%
%LAST UPDATE:	02/19/2020, 12:16:33						%
%DESCRIPTION: 	65 games played with 25 games left				%


n=10; %number of teams

%Games to play
games=[|5,8|1,5|2,6|7,6|7,8|5,10|2,7|4,3|7,9|8,4|10,1|8,3|10,3|2,3|4,10|9,4|2,1|6,5|8,9|7,2|6,1|7,1|3,8|9,2|5,9|];

%Initial points
iPoints=[13,14,20,19,15,17,21,19,19,23];

%POSITION CONSTRAINTS
% [|teamID, operator, position|...]
% operators index:
%  1 for =  operator
%  2 for >  operator
%  3 for >= operator
%  4 for <  operator
%  5 for <= operator
positionConstraints=[|10,4,2|8,2,1|];